300 270 10
0 1 0
1 2 0
2 3 0
3 4 0
4 5 0
5 6 0
6 7 0
7 8 0
8 9 0
10 11 1
11 12 1
12 13 1
13 14 1
14 15 1
15 16 1
16 17 1
17 18 1
18 19 1
20 21 2
21 22 2
22 23 2
23 24 2
24 25 2
25 26 2
26 27 2
27 28 2
28 29 2
30 31 3
31 32 3
32 33 3
33 34 3
34 35 3
35 36 3
36 37 3
37 38 3
38 39 3
40 41 4
41 42 4
42 43 4
43 44 4
44 45 4
45 46 4
46 47 4
47 48 4
48 49 4
50 51 5
51 52 5
52 53 5
53 54 5
54 55 5
55 56 5
56 57 5
57 58 5
58 59 5
60 61 6
61 62 6
62 63 6
63 64 6
64 65 6
65 66 6
66 67 6
67 68 6
68 69 6
70 71 7
71 72 7
72 73 7
73 74 7
74 75 7
75 76 7
76 77 7
77 78 7
78 79 7
80 81 8
81 82 8
82 83 8
83 84 8
84 85 8
85 86 8
86 87 8
87 88 8
88 89 8
90 91 9
91 92 9
92 93 9
93 94 9
94 95 9
95 96 9
96 97 9
97 98 9
98 99 9
100 101 10
101 102 10
102 103 10
103 104 10
104 105 10
105 106 10
106 107 10
107 108 10
108 109 10
110 111 11
111 112 11
112 113 11
113 114 11
114 115 11
115 116 11
116 117 11
117 118 11
118 119 11
120 121 12
121 122 12
122 123 12
123 124 12
124 125 12
125 126 12
126 127 12
127 128 12
128 129 12
130 131 13
131 132 13
132 133 13
133 134 13
134 135 13
135 136 13
136 137 13
137 138 13
138 139 13
140 141 14
141 142 14
142 143 14
143 144 14
144 145 14
145 146 14
146 147 14
147 148 14
148 149 14
150 151 15
151 152 15
152 153 15
153 154 15
154 155 15
155 156 15
156 157 15
157 158 15
158 159 15
160 161 16
161 162 16
162 163 16
163 164 16
164 165 16
165 166 16
166 167 16
167 168 16
168 169 16
170 171 17
171 172 17
172 173 17
173 174 17
174 175 17
175 176 17
176 177 17
177 178 17
178 179 17
180 181 18
181 182 18
182 183 18
183 184 18
184 185 18
185 186 18
186 187 18
187 188 18
188 189 18
190 191 19
191 192 19
192 193 19
193 194 19
194 195 19
195 196 19
196 197 19
197 198 19
198 199 19
200 201 20
201 202 20
202 203 20
203 204 20
204 205 20
205 206 20
206 207 20
207 208 20
208 209 20
210 211 21
211 212 21
212 213 21
213 214 21
214 215 21
215 216 21
216 217 21
217 218 21
218 219 21
220 221 22
221 222 22
222 223 22
223 224 22
224 225 22
225 226 22
226 227 22
227 228 22
228 229 22
230 231 23
231 232 23
232 233 23
233 234 23
234 235 23
235 236 23
236 237 23
237 238 23
238 239 23
240 241 24
241 242 24
242 243 24
243 244 24
244 245 24
245 246 24
246 247 24
247 248 24
248 249 24
250 251 25
251 252 25
252 253 25
253 254 25
254 255 25
255 256 25
256 257 25
257 258 25
258 259 25
260 261 26
261 262 26
262 263 26
263 264 26
264 265 26
265 266 26
266 267 26
267 268 26
268 269 26
270 271 27
271 272 27
272 273 27
273 274 27
274 275 27
275 276 27
276 277 27
277 278 27
278 279 27
280 281 28
281 282 28
282 283 28
283 284 28
284 285 28
285 286 28
286 287 28
287 288 28
288 289 28
290 291 29
291 292 29
292 293 29
293 294 29
294 295 29
295 296 29
296 297 29
297 298 29
298 299 29
1 4 21
1 7 26
1 9 16
1 2 34
1 3 55
1 8 52
1 5 95
1 6 71
1 1 21
1 0 53
1 8 77
1 5 98
1 1 42
1 7 66
1 2 31
1 3 39
1 6 77
1 9 79
1 4 55
1 0 12
1 2 64
1 4 92
1 3 34
1 1 19
1 8 62
1 6 54
1 7 43
1 0 83
1 9 79
1 5 37
1 0 93
1 8 24
1 3 69
1 7 38
1 5 77
1 2 87
1 4 60
1 6 41
1 1 87
1 9 83
1 9 77
1 0 44
1 4 96
1 8 79
1 6 75
1 2 98
1 5 25
1 3 17
1 7 43
1 1 49
1 3 76
1 2 35
1 5 28
1 0 95
1 7 95
1 4 61
1 8 35
1 1 7
1 6 9
1 9 10
1 1 91
1 7 27
1 8 50
1 3 16
1 4 28
1 5 59
1 6 52
1 0 46
1 2 59
1 9 43
1 1 45
1 7 71
1 2 39
1 0 87
1 8 14
1 6 54
1 3 41
1 9 43
1 5 9
1 4 20
1 2 37
1 3 26
1 4 33
1 9 42
1 0 78
1 6 89
1 7 8
1 8 66
1 1 28
1 5 33
1 1 74
1 0 69
1 5 84
1 3 27
1 9 81
1 7 45
1 8 69
1 2 94
1 6 78
1 4 96
1 5 76
1 7 32
1 6 18
1 0 20
1 3 87
1 2 17
1 9 25
1 4 24
1 1 31
1 8 81
1 9 97
1 8 90
1 5 28
1 7 86
1 0 58
1 1 72
1 2 23
1 6 76
1 3 99
1 4 45
1 9 48
1 5 27
1 6 67
1 7 62
1 4 98
1 0 42
1 1 46
1 8 27
1 3 48
1 2 17
1 9 80
1 3 19
1 5 28
1 1 12
1 4 94
1 6 63
1 7 98
1 8 50
1 0 80
1 2 50
1 2 50
1 1 41
1 4 61
1 8 79
1 5 14
1 9 72
1 7 18
1 3 55
1 6 37
1 0 75
1 9 22
1 5 57
1 4 75
1 2 14
1 7 65
1 3 96
1 1 71
1 0 47
1 8 79
1 6 60
1 3 32
1 2 69
1 4 44
1 1 31
1 9 51
1 0 33
1 6 34
1 5 58
1 7 47
1 8 58
1 8 66
1 7 40
1 2 17
1 0 62
1 9 38
1 5 8
1 6 15
1 3 29
1 1 44
1 4 97
1 3 50
1 2 58
1 6 21
1 4 63
1 7 57
1 8 32
1 5 20
1 9 87
1 0 57
1 1 39
1 4 20
1 6 67
1 1 85
1 2 90
1 7 70
1 0 84
1 8 30
1 5 56
1 3 61
1 9 15
1 6 29
1 0 82
1 4 18
1 3 38
1 7 21
1 8 50
1 1 23
1 5 84
1 2 45
1 9 41
1 3 54
1 9 37
1 6 62
1 5 16
1 0 52
1 8 57
1 4 54
1 2 38
1 7 74
1 1 52
1 4 79
1 1 61
1 8 11
1 0 81
1 7 89
1 6 89
1 5 57
1 3 68
1 9 81
1 2 30
1 9 24
1 1 66
1 4 32
1 3 33
1 8 8
1 2 20
1 6 84
1 0 91
1 7 55
1 5 20
1 3 54
1 2 64
1 6 83
1 9 40
1 7 8
1 0 7
1 4 19
1 5 56
1 1 39
1 8 7
1 1 6
1 4 74
1 0 63
1 2 64
1 9 15
1 6 42
1 7 98
1 8 61
1 5 40
1 3 91
1 1 80
1 3 75
1 0 26
1 2 87
1 9 22
1 7 39
1 8 24
1 4 75
1 6 44
1 5 6
1 5 8
1 3 79
1 6 61
1 1 15
1 0 12
1 7 43
1 8 26
1 9 22
1 2 20
1 4 80
1 1 36
1 0 63
1 7 10
1 4 22
1 3 96
1 5 40
1 9 5
1 8 18
1 6 33
1 2 62
1 4 8
1 8 15
1 2 64
1 3 95
1 1 96
1 6 38
1 7 18
1 9 23
1 5 64
1 0 89